SAT
-1 -100 97 72 99 -78 81 -10 -20 30 24 -86 -11 18 64 -48 -27 87 -26 52 -68 2 70 66 83 -32 -39 -73 47 36 -90 13 -89 -92 54 6 56 19 -28 43 79 -9 3 -88 69 -58 -75 -62 -49 77 22 -40 -15 93 -38 65 -44 46 14 51 -23 -35 12 16 60 53 -74 45 91 25 50 -84 95 21 -29 -31 5 -34 59 96 -63 -7 -85 -82 -94 -98 55 33 71 8 -42 -67 -41 -57 17 80 37 -76 -61 4 0
